; benchmark generated from python API
(set-info :status unknown)
(declare-fun DISJ_W_S2_R_S1 () Bool)
(declare-fun W_S2_V3 () Bool)
(declare-fun W_S2_V5 () Bool)
(declare-fun R_S2_V4 () Bool)
(declare-fun W_S1_V4 () Bool)
(declare-fun R_S2_V3 () Bool)
(declare-fun DISJ_W_S1_R_S2 () Bool)
(declare-fun DISJ_W_S2_R_S2 () Bool)
(declare-fun W_S2_V2 () Bool)
(declare-fun R_E1_V4 () Bool)
(declare-fun R_E1_V5 () Bool)
(declare-fun W_S1_V5 () Bool)
(declare-fun W_S2_V1 () Bool)
(declare-fun R_S2_V5 () Bool)
(declare-fun R_S2_V2 () Bool)
(declare-fun R_S2_V1 () Bool)
(declare-fun R_S1_V4 () Bool)
(declare-fun R_S1_V5 () Bool)
(declare-fun R_S1_V2 () Bool)
(declare-fun R_S1_V3 () Bool)
(declare-fun R_S1_V1 () Bool)
(declare-fun R_E1_V2 () Bool)
(declare-fun DISJ_W_S2_R_E1 () Bool)
(declare-fun DISJ_W_S1_W_S2 () Bool)
(declare-fun R_E1_V3 () Bool)
(declare-fun DISJ_W_S1_R_S1 () Bool)
(declare-fun W_S2_V4 () Bool)
(declare-fun W_S1_V3 () Bool)
(declare-fun W_S1_V2 () Bool)
(declare-fun W_S1_V1 () Bool)
(declare-fun R_E1_V1 () Bool)
(declare-fun DISJ_W_S1_R_E1 () Bool)
(assert
 (let (($x2989 (not (and (not R_S2_V4) (not W_S2_V5) (not W_S2_V3) DISJ_W_S2_R_S1))))
 (let (($x235 (not (and (not R_S2_V3) (not W_S1_V4) (not W_S2_V5) DISJ_W_S2_R_S1))))
 (let (($x2454 (not (and DISJ_W_S1_R_S2 DISJ_W_S2_R_S1))))
 (let (($x2082 (not (and (not W_S2_V2) DISJ_W_S2_R_S2))))
 (let (($x3448 (not (and DISJ_W_S2_R_S1 DISJ_W_S2_R_S2))))
 (let (($x1041 (not (and W_S1_V4 R_E1_V4))))
 (let (($x3234 (not (and W_S1_V5 R_E1_V5))))
 (let (($x2751 (forall ((V3_0 Int) )(forall ((V2_0 Int) )(forall ((V5_0 Int) )(forall ((V4_0 Int) )(forall ((MW_S1_V1 Bool) )(forall ((MW_S1_V3 Bool) )(forall ((MW_S1_V2 Bool) )(forall ((MW_S1_V5 Bool) )(forall ((MW_S1_V4 Bool) )(forall ((MW_S2_V1 Bool) )(forall ((MW_S2_V3 Bool) )(forall ((MW_S2_V2 Bool) )(forall ((MW_S2_V5 Bool) )(forall ((MW_S2_V4 Bool) )(forall ((S1_V1_!2447 Int) )(forall ((S1_V1_!2464 Int) )(forall ((S1_V1_!2474 Int) )(forall ((S2_V5_!2456 Int) )(forall ((S2_V5_!2461 Int) )(forall ((S2_V5_!2472 Int) )(forall ((S2_V5_!2482 Int) )(forall ((S1_V3_!2448 Int) )(forall ((S1_V3_!2465 Int) )(forall ((S1_V3_!2475 Int) )(forall ((S1_V2_!2449 Int) )(forall ((S1_V2_!2466 Int) )(forall ((S1_V2_!2476 Int) )(forall ((E1_!2446 Int) )(forall ((E1_!2452 Int) )(forall ((E1_!2463 Int) )(forall ((S2_V4_!2457 Int) )(forall ((S2_V4_!2462 Int) )(forall ((S2_V4_!2473 Int) )(forall ((S2_V4_!2483 Int) )(forall ((S1_V5_!2450 Int) )(forall ((S1_V5_!2467 Int) )(forall ((S1_V5_!2477 Int) )(forall ((S2_V1_!2453 Int) )(forall ((S2_V1_!2458 Int) )(forall ((S2_V1_!2469 Int) )(forall ((S2_V1_!2479 Int) )(forall ((S1_V4_!2451 Int) )(forall ((S1_V4_!2468 Int) )(forall ((S1_V4_!2478 Int) )(forall ((S2_V2_!2455 Int) )(forall ((S2_V2_!2460 Int) )(forall ((S2_V2_!2471 Int) )(forall ((S2_V2_!2481 Int) )(forall ((S2_V3_!2454 Int) )(forall ((S2_V3_!2459 Int) )(forall ((S2_V3_!2470 Int) )(forall ((S2_V3_!2480 Int) )(let (($x1770 (= (ite MW_S2_V4 S2_V4_!2462 (ite MW_S1_V4 S1_V4_!2451 V4_0)) (ite MW_S2_V4 S2_V4_!2483 (ite MW_S1_V4 S1_V4_!2478 (ite MW_S2_V4 S2_V4_!2473 (ite MW_S1_V4 S1_V4_!2468 V4_0)))))))
 (let (($x2062 (= (ite MW_S2_V5 S2_V5_!2461 (ite MW_S1_V5 S1_V5_!2450 V5_0)) (ite MW_S2_V5 S2_V5_!2482 (ite MW_S1_V5 S1_V5_!2477 (ite MW_S2_V5 S2_V5_!2472 (ite MW_S1_V5 S1_V5_!2467 V5_0)))))))
 (let ((?x66 (ite MW_S1_V2 S1_V2_!2466 V2_0)))
 (let ((?x5283 (ite MW_S2_V2 S2_V2_!2471 ?x66)))
 (let ((?x3309 (ite MW_S1_V2 S1_V2_!2476 ?x5283)))
 (let ((?x520 (ite MW_S2_V2 S2_V2_!2481 ?x3309)))
 (let ((?x1400 (ite MW_S1_V2 S1_V2_!2449 V2_0)))
 (let ((?x3313 (ite MW_S2_V2 S2_V2_!2460 ?x1400)))
 (let (($x783 (= (ite MW_S2_V3 S2_V3_!2459 (ite MW_S1_V3 S1_V3_!2448 V3_0)) (ite MW_S2_V3 S2_V3_!2480 (ite MW_S1_V3 S1_V3_!2475 (ite MW_S2_V3 S2_V3_!2470 (ite MW_S1_V3 S1_V3_!2465 V3_0)))))))
 (let ((?x40 (ite MW_S1_V1 S1_V1_!2464 E1_!2463)))
 (let ((?x201 (ite MW_S2_V1 S2_V1_!2469 ?x40)))
 (let ((?x6028 (+ 1 ?x201)))
 (let ((?x4628 (ite MW_S1_V1 S1_V1_!2474 ?x6028)))
 (let ((?x4683 (ite MW_S2_V1 S2_V1_!2479 ?x4628)))
 (let ((?x2689 (ite MW_S2_V1 S2_V1_!2453 E1_!2452)))
 (let ((?x2083 (+ 1 ?x2689)))
 (let ((?x489 (ite MW_S2_V1 S2_V1_!2458 ?x2083)))
 (let (($x5984 (and (not (<= V2_0 E1_!2446)) (>= (ite MW_S1_V1 S1_V1_!2447 E1_!2446) (+ (- 1) ?x1400)) (not (<= ?x1400 E1_!2452)) (not (<= (ite MW_S2_V2 S2_V2_!2455 ?x1400) ?x2083)) (>= ?x489 (+ (- 1) ?x3313)) (not (<= V2_0 E1_!2463)) (not (<= ?x5283 ?x6028)) (>= ?x4683 (+ (- 1) ?x520)))))
 (let (($x2279 (= S2_V3_!2480 S2_V3_!2470)))
 (let ((?x2379 (ite MW_S1_V4 S1_V4_!2468 V4_0)))
 (let ((?x964 (ite MW_S2_V4 S2_V4_!2473 ?x2379)))
 (let ((?x5778 (ite MW_S1_V4 S1_V4_!2478 ?x964)))
 (let (($x367 (not R_S2_V4)))
 (let ((?x1333 (ite MW_S1_V5 S1_V5_!2467 V5_0)))
 (let ((?x2151 (ite MW_S2_V5 S2_V5_!2472 ?x1333)))
 (let ((?x5040 (ite MW_S1_V5 S1_V5_!2477 ?x2151)))
 (let (($x2530 (not R_S2_V5)))
 (let ((?x3866 (ite MW_S1_V3 S1_V3_!2465 V3_0)))
 (let ((?x3710 (ite MW_S2_V3 S2_V3_!2470 ?x3866)))
 (let ((?x3431 (ite MW_S1_V3 S1_V3_!2475 ?x3710)))
 (let (($x2313 (not R_S2_V3)))
 (let (($x3296 (and (or (not R_S2_V1) (= ?x4628 ?x40)) (or $x2313 (= ?x3431 ?x3866)) (or (not R_S2_V2) (= ?x3309 ?x66)) (or $x2530 (= ?x5040 ?x1333)) (or $x367 (= ?x5778 ?x2379)))))
 (let (($x1596 (not $x3296)))
 (let (($x5310 (= S2_V3_!2480 S2_V3_!2459)))
 (let (($x6063 (and (or (not R_S2_V1) (= ?x4628 ?x2083)) (or $x2313 (= ?x3431 (ite MW_S2_V3 S2_V3_!2454 (ite MW_S1_V3 S1_V3_!2448 V3_0)))) (or (not R_S2_V2) (= ?x3309 (ite MW_S2_V2 S2_V2_!2455 ?x1400))) (or $x2530 (= ?x5040 (ite MW_S2_V5 S2_V5_!2456 (ite MW_S1_V5 S1_V5_!2450 V5_0)))) (or $x367 (= ?x5778 (ite MW_S2_V4 S2_V4_!2457 (ite MW_S1_V4 S1_V4_!2451 V4_0)))))))
 (let (($x1129 (not $x6063)))
 (let (($x6018 (= S2_V3_!2470 S2_V3_!2459)))
 (let (($x745 (and (or (not R_S2_V1) (= ?x40 ?x2083)) (or $x2313 (= ?x3866 (ite MW_S2_V3 S2_V3_!2454 (ite MW_S1_V3 S1_V3_!2448 V3_0)))) (or (not R_S2_V2) (= ?x66 (ite MW_S2_V2 S2_V2_!2455 ?x1400))) (or $x2530 (= ?x1333 (ite MW_S2_V5 S2_V5_!2456 (ite MW_S1_V5 S1_V5_!2450 V5_0)))) (or $x367 (= ?x2379 (ite MW_S2_V4 S2_V4_!2457 (ite MW_S1_V4 S1_V4_!2451 V4_0)))))))
 (let (($x118 (not $x745)))
 (let (($x807 (= S2_V3_!2454 S2_V3_!2480)))
 (let (($x2786 (and (or (not R_S2_V1) (= E1_!2452 ?x4628)) (or $x2313 (= (ite MW_S1_V3 S1_V3_!2448 V3_0) ?x3431)) (or (not R_S2_V2) (= ?x1400 ?x3309)) (or $x2530 (= (ite MW_S1_V5 S1_V5_!2450 V5_0) ?x5040)) (or $x367 (= (ite MW_S1_V4 S1_V4_!2451 V4_0) ?x5778)))))
 (let (($x538 (not $x2786)))
 (let (($x2759 (= S2_V3_!2454 S2_V3_!2470)))
 (let (($x766 (and (or (not R_S2_V1) (= E1_!2452 ?x40)) (or $x2313 (= (ite MW_S1_V3 S1_V3_!2448 V3_0) ?x3866)) (or (not R_S2_V2) (= ?x1400 ?x66)) (or $x2530 (= (ite MW_S1_V5 S1_V5_!2450 V5_0) ?x1333)) (or $x367 (= (ite MW_S1_V4 S1_V4_!2451 V4_0) ?x2379)))))
 (let (($x1707 (not $x766)))
 (let (($x320 (= S2_V3_!2454 S2_V3_!2459)))
 (let (($x1115 (or $x367 (= (ite MW_S1_V4 S1_V4_!2451 V4_0) (ite MW_S2_V4 S2_V4_!2457 (ite MW_S1_V4 S1_V4_!2451 V4_0))))))
 (let (($x4236 (or $x2530 (= (ite MW_S1_V5 S1_V5_!2450 V5_0) (ite MW_S2_V5 S2_V5_!2456 (ite MW_S1_V5 S1_V5_!2450 V5_0))))))
 (let (($x31 (or $x2313 (= (ite MW_S1_V3 S1_V3_!2448 V3_0) (ite MW_S2_V3 S2_V3_!2454 (ite MW_S1_V3 S1_V3_!2448 V3_0))))))
 (let (($x704 (and (or (not R_S2_V1) (= E1_!2452 ?x2083)) $x31 (or (not R_S2_V2) (= ?x1400 (ite MW_S2_V2 S2_V2_!2455 ?x1400))) $x4236 $x1115)))
 (let (($x2461 (not $x704)))
 (let (($x4661 (= S2_V2_!2481 S2_V2_!2455)))
 (let (($x1691 (and (or (not R_S2_V1) (= ?x4628 E1_!2452)) (or $x2313 (= ?x3431 (ite MW_S1_V3 S1_V3_!2448 V3_0))) (or (not R_S2_V2) (= ?x3309 ?x1400)) (or $x2530 (= ?x5040 (ite MW_S1_V5 S1_V5_!2450 V5_0))) (or $x367 (= ?x5778 (ite MW_S1_V4 S1_V4_!2451 V4_0))))))
 (let (($x2920 (not $x1691)))
 (let (($x1234 (= S2_V2_!2471 S2_V2_!2481)))
 (let (($x2341 (and (or (not R_S2_V1) (= ?x40 ?x4628)) (or $x2313 (= ?x3866 ?x3431)) (or (not R_S2_V2) (= ?x66 ?x3309)) (or $x2530 (= ?x1333 ?x5040)) (or $x367 (= ?x2379 ?x5778)))))
 (let (($x1310 (not $x2341)))
 (let (($x3531 (= S2_V2_!2471 S2_V2_!2455)))
 (let (($x1081 (and (or (not R_S2_V1) (= ?x40 E1_!2452)) (or $x2313 (= ?x3866 (ite MW_S1_V3 S1_V3_!2448 V3_0))) (or (not R_S2_V2) (= ?x66 ?x1400)) (or $x2530 (= ?x1333 (ite MW_S1_V5 S1_V5_!2450 V5_0))) (or $x367 (= ?x2379 (ite MW_S1_V4 S1_V4_!2451 V4_0))))))
 (let (($x2109 (not $x1081)))
 (let (($x34 (not R_S1_V4)))
 (let (($x1448 (or $x34 (= ?x964 V4_0))))
 (let (($x5763 (not R_S1_V5)))
 (let (($x6030 (or $x5763 (= ?x2151 V5_0))))
 (let (($x1286 (not R_S1_V2)))
 (let (($x3709 (or $x1286 (= ?x5283 V2_0))))
 (let (($x5172 (not R_S1_V3)))
 (let (($x1412 (or $x5172 (= ?x3710 V3_0))))
 (let (($x4386 (and (or (not R_S1_V1) (= ?x201 (+ (- 1) E1_!2446))) $x1412 $x3709 $x6030 $x1448)))
 (let (($x48 (not $x4386)))
 (let (($x713 (= S1_V4_!2468 S1_V4_!2478)))
 (let (($x1021 (or $x34 (= V4_0 ?x964))))
 (let (($x3390 (or $x5763 (= V5_0 ?x2151))))
 (let (($x5980 (or $x1286 (= V2_0 ?x5283))))
 (let (($x5971 (or $x5172 (= V3_0 ?x3710))))
 (let (($x4928 (not (and (or (not R_S1_V1) (= E1_!2463 ?x6028)) $x5971 $x5980 $x3390 $x1021))))
 (let (($x2559 (and (or (not R_S2_V1) (= ?x2689 (+ (- 1) ?x4628))) (or $x2313 (= (ite MW_S2_V3 S2_V3_!2454 (ite MW_S1_V3 S1_V3_!2448 V3_0)) ?x3431)) (or (not R_S2_V2) (= (ite MW_S2_V2 S2_V2_!2455 ?x1400) ?x3309)) (or $x2530 (= (ite MW_S2_V5 S2_V5_!2456 (ite MW_S1_V5 S1_V5_!2450 V5_0)) ?x5040)) (or $x367 (= (ite MW_S2_V4 S2_V4_!2457 (ite MW_S1_V4 S1_V4_!2451 V4_0)) ?x5778)))))
 (let (($x1455 (not $x2559)))
 (let (($x5866 (and (or (not R_S1_V1) (= ?x201 (+ (- 1) E1_!2463))) $x1412 $x3709 $x6030 $x1448)))
 (let (($x1657 (not $x5866)))
 (let (($x4873 (and (or (not R_S2_V1) (= ?x2689 (+ (- 1) ?x40))) (or $x2313 (= (ite MW_S2_V3 S2_V3_!2454 (ite MW_S1_V3 S1_V3_!2448 V3_0)) ?x3866)) (or (not R_S2_V2) (= (ite MW_S2_V2 S2_V2_!2455 ?x1400) ?x66)) (or $x2530 (= (ite MW_S2_V5 S2_V5_!2456 (ite MW_S1_V5 S1_V5_!2450 V5_0)) ?x1333)) (or $x367 (= (ite MW_S2_V4 S2_V4_!2457 (ite MW_S1_V4 S1_V4_!2451 V4_0)) ?x2379)))))
 (let (($x3727 (not $x4873)))
 (let (($x1769 (= E1_!2463 E1_!2446)))
 (let (($x343 (and (or (not R_E1_V2) (= ?x1400 V2_0)) (or (not R_E1_V5) (= (ite MW_S1_V5 S1_V5_!2450 V5_0) V5_0)) (or (not R_E1_V4) (= (ite MW_S1_V4 S1_V4_!2451 V4_0) V4_0)))))
 (let (($x3849 (not $x343)))
 (let (($x926 (or $x367 (= (ite MW_S2_V4 S2_V4_!2457 (ite MW_S1_V4 S1_V4_!2451 V4_0)) (ite MW_S1_V4 S1_V4_!2451 V4_0)))))
 (let (($x1434 (or $x2530 (= (ite MW_S2_V5 S2_V5_!2456 (ite MW_S1_V5 S1_V5_!2450 V5_0)) (ite MW_S1_V5 S1_V5_!2450 V5_0)))))
 (let (($x2402 (or $x2313 (= (ite MW_S2_V3 S2_V3_!2454 (ite MW_S1_V3 S1_V3_!2448 V3_0)) (ite MW_S1_V3 S1_V3_!2448 V3_0)))))
 (let (($x1036 (and (or (not R_S2_V1) (= ?x2689 (+ (- 1) E1_!2452))) $x2402 (or (not R_S2_V2) (= (ite MW_S2_V2 S2_V2_!2455 ?x1400) ?x1400)) $x1434 $x926)))
 (let (($x2153 (or (not (and (or (not R_S1_V1) (= E1_!2446 ?x6028)) $x5971 $x5980 $x3390 $x1021)) (= S1_V1_!2447 S1_V1_!2474))))
 (let (($x2207 (and $x2153 (or (not (or (not R_S1_V1) $x1769)) (= S1_V1_!2464 S1_V1_!2447)) (or $x4928 (= S1_V1_!2464 S1_V1_!2474)) (or $x1707 (= S2_V5_!2456 S2_V5_!2472)) (or (not $x1036) (= S2_V5_!2461 S2_V5_!2456)) (or $x3727 (= S2_V5_!2461 S2_V5_!2472)) (or $x2920 (= S2_V5_!2482 S2_V5_!2456)) (or $x1129 (= S2_V5_!2482 S2_V5_!2461)) (or $x1596 (= S2_V5_!2482 S2_V5_!2472)) (or (not (or (not R_S1_V1) $x1769)) (= S1_V3_!2465 S1_V3_!2448)) (or $x4928 (= S1_V3_!2465 S1_V3_!2475)) (or $x48 (= S1_V3_!2475 S1_V3_!2448)) (or (not (or (not R_S1_V1) $x1769)) (= S1_V2_!2466 S1_V2_!2449)) (or $x48 (= S1_V2_!2476 S1_V2_!2449)) (or $x1657 (= S1_V2_!2476 S1_V2_!2466)) (or $x3849 (= E1_!2452 E1_!2446)) (or $x3849 (= E1_!2452 E1_!2463)) $x1769 (or $x2461 (= S2_V4_!2457 S2_V4_!2462)) (or $x1707 (= S2_V4_!2457 S2_V4_!2473)) (or $x538 (= S2_V4_!2457 S2_V4_!2483)) (or $x3727 (= S2_V4_!2462 S2_V4_!2473)) (or $x1455 (= S2_V4_!2462 S2_V4_!2483)) (or $x1596 (= S2_V4_!2483 S2_V4_!2473)) (or (not (or (not R_S1_V1) $x1769)) (= S1_V5_!2467 S1_V5_!2450)) (or $x48 (= S1_V5_!2477 S1_V5_!2450)) (or $x1657 (= S1_V5_!2477 S1_V5_!2467)) (or $x2461 (= S2_V1_!2453 S2_V1_!2458)) (or $x538 (= S2_V1_!2453 S2_V1_!2479)) (or $x1455 (= S2_V1_!2458 S2_V1_!2479)) (or $x2109 (= S2_V1_!2469 S2_V1_!2453)) (or $x118 (= S2_V1_!2469 S2_V1_!2458)) (or $x1310 (= S2_V1_!2469 S2_V1_!2479)) (or (not (or (not R_S1_V1) $x1769)) (= S1_V4_!2468 S1_V4_!2451)) (or $x4928 $x713) (or $x48 (= S1_V4_!2478 S1_V4_!2451)) (or $x2461 (= S2_V2_!2455 S2_V2_!2460)) (or $x2109 $x3531) (or $x118 (= S2_V2_!2471 S2_V2_!2460)) (or $x1310 $x1234) (or $x2920 $x4661) (or $x1129 (= S2_V2_!2481 S2_V2_!2460)) (or $x2461 $x320) (or $x1707 $x2759) (or $x538 $x807) (or $x118 $x6018) (or $x1129 $x5310) (or $x1596 $x2279) (not MW_S1_V1) (not MW_S1_V2) (or (not MW_S1_V5) W_S1_V5) (or (not MW_S1_V4) W_S1_V4) (or (not MW_S2_V1) W_S2_V1) (or (not MW_S2_V3) W_S2_V3) (or (not MW_S2_V2) W_S2_V2) (or (not MW_S2_V5) W_S2_V5))))
 (or (not $x2207) (not $x5984) (and (= ?x489 ?x4683) $x783 (= ?x3313 ?x520) $x2062 $x1770))))))))))))))))))))))))))))))))))))))))))))))))))))))))))))))))))))))))))))))))))))))))))))))
 )
 )
 )
 )
 )
 )
 )
 )
 )
 )
 )
 )
 )
 )
 )
 )
 )
 )
 )
 )
 )
 )
 )
 )
 )
 )
 )
 )
 )
 )
 )
 )
 )
 )
 )
 )
 )
 )
 )
 )
 )
 )
 )
 )
 )
 )
 )
 )
 )
 )
 )
 ))
 (let (($x5957 (or (and W_S2_V2 R_E1_V2) (and W_S2_V5 R_E1_V5) R_E1_V4)))
 (let (($x763 (= DISJ_W_S2_R_E1 (not $x5957))))
 (let (($x4563 (and W_S2_V5 R_S2_V5)))
 (let (($x363 (and W_S2_V2 R_S2_V2)))
 (let (($x3367 (and W_S2_V3 R_S2_V3)))
 (let (($x3637 (and W_S2_V1 R_S2_V1)))
 (let (($x114 (= DISJ_W_S2_R_S2 (not (or $x3637 $x3367 $x363 $x4563 R_S2_V4)))))
 (let (($x896 (and W_S2_V5 R_S1_V5)))
 (let (($x2063 (and W_S2_V2 R_S1_V2)))
 (let (($x3856 (and W_S2_V3 R_S1_V3)))
 (let (($x5208 (and W_S2_V1 R_S1_V1)))
 (let (($x1090 (= DISJ_W_S2_R_S1 (not (or $x5208 $x3856 $x2063 $x896 R_S1_V4)))))
 (let (($x448 (= DISJ_W_S1_W_S2 (not (or W_S2_V3 (and W_S1_V5 W_S2_V5) W_S1_V4)))))
 (let (($x1221 (not R_E1_V3)))
 (let (($x3759 (not (or R_S2_V3 (and W_S1_V5 R_S2_V5) (and W_S1_V4 R_S2_V4)))))
 (let (($x1944 (= DISJ_W_S1_R_S2 $x3759)))
 (let (($x2951 (not (or R_S1_V3 (and W_S1_V5 R_S1_V5) (and W_S1_V4 R_S1_V4)))))
 (let (($x2191 (= DISJ_W_S1_R_S1 $x2951)))
 (let (($x1786 (not R_S1_V1)))
 (let (($x1803 (and $x1786 DISJ_W_S1_R_S1)))
 (let (($x5815 (not W_S2_V2)))
 (let (($x100 (not W_S2_V1)))
 (let (($x3149 (and $x100 $x5815)))
 (let (($x6079 (and $x5815 DISJ_W_S2_R_S1 DISJ_W_S1_R_S1)))
 (let (($x1215 (or $x6079 $x3149 $x1803)))
 (let (($x2029 (not W_S1_V2)))
 (let (($x462 (not W_S1_V1)))
 (let (($x699 (not R_E1_V1)))
 (let (($x963 (and DISJ_W_S1_R_E1 $x699 $x462 $x2029 $x1215 W_S1_V3 W_S2_V4 $x2191 $x1944 $x1221 $x448 $x1090 $x114 $x763 $x2751 $x3234 $x1041)))
 (and $x963 $x3448 $x2082 $x2454 $x235 $x2989)))))))))))))))))))))))))))))))))))))))
(check-sat)
